1 999 5
2 889 5
3 841 5
26 830 5
35 825 5
129 816 5
628 806 5



1 962 5
2 936 5
3 867 5
7 865 5
12 850 5
18 843 5
23 828 5
121 824 5
129 820 5
155 815 5
399 797 5



1 970 5
2 908 5
3 869 5
10 856 5
24 854 5
39 842 5
54 837 5
60 829 5
88 824 5
175 819 5
185 813 5
190 805 5



1 1037 5
2 933 5
3 901 5
5 884 5
7 873 5
8 863 5
10 849 5
13 811 5
105 798 5



1 987 5
2 893 5
3 887 5
5 838 5
17 830 5
24 827 5
50 819 5
170 806 5
243 797 5



